NAME : auto_generated
COMMENT : Automatically generated TSP instance
TYPE : TSP
DIMENSION : 25
EDGE_WEIGHT_TYPE : EUC_2D
NODE_COORD_SECTION
1 25 61
2 59 7
3 47 44
4 42 79
5 85 84
6 92 14
7 76 50
8 95 33
9 67 70
10 49 51
11 18 58
12 7 59
13 90 49
14 89 70
15 75 27
16 88 14
17 66 22
18 26 8
19 85 20
20 83 31
21 45 77
22 94 29
23 87 8
24 28 96
25 30 32
EOF
